Minimize
obj: x0 + x1 + x2 + x3 + x4 + x5 + x6 + x7 + x8 + x9 + x10 + x11 + x12 + x13 + x14 + x15 + x16 

Subject To
x0 + x2 - 2 z1 >= 0
z1 = 1

x0 + x4 - 2 z2 >= 0
z2 + x2 = 1

x0 + x6  - 2 z3 >= 0
x2 + x4  - 2 z4 >= 0
z3 + z4 >= 1

x0 + x8  - 2 z5 >= 0
x2 + x6  - 2 z6 >= 0
z5 + z6 + x4 >= 1

x0 + x10  - 2 z7 >= 0
x2 + x8  - 2 z8 >= 0
x4 + x6  - 2 z9 >= 0
z7 + z8 + z9 >= 1

x0 + x12  - 2 z10 >= 0
x2 + x10  - 2 z11 >= 0
x4 + x8  - 2 z12 >= 0
z10 + z11 + z12 + x6 >= 1

x0 + x14  - 2 z13 >= 0
x2 + x12  - 2 z14 >= 0
x4 + x10  - 2 z15 >= 0
x6 + x8  - 2 z16 >= 0
z13 + z14 + z15 + z16 >= 1

x0 + x16  - 2 z17 >= 0
x2 + x14  - 2 z18 >= 0
x4 + x12  - 2 z19 >= 0
x6 + x10  - 2 z20 >= 0
z17 + z18 + z19 + z20 + x8 >= 1

x0 - x16 = 0
x1 - x15 = 0
x2 - x14 = 0
x3 - x13 = 0
x4 - x12 = 0
x5 - x11 = 0
x6 - x10 = 0
x7 - x9 = 0
x10 - x6 = 0
x12 - x4 = 0
x14 - x2 = 0
x0 = 1

Bounds
0 <= x0 <= 1
0 <= x1 <= 1
0 <= x2 <= 1
0 <= x3 <= 1
0 <= x4 <= 1
0 <= x5 <= 1
0 <= x6 <= 1
0 <= x7 <= 1
0 <= x8 <= 1
0 <= x9 <= 1
0 <= x10 <= 1
0 <= x11 <= 1
0 <= x12 <= 1
0 <= x13 <= 1
0 <= x14 <= 1
0 <= z1 <= 1
0 <= z2 <= 1
0 <= z3 <= 1
0 <= z4 <= 1
0 <= z5 <= 1
0 <= z6 <= 1
0 <= z7 <= 1
0 <= z8 <= 1
0 <= z9 <= 1
0 <= z10 <= 1
0 <= z11 <= 1
0 <= z12 <= 1
0 <= z13 <= 1
0 <= z14 <= 1
0 <= z15 <= 1
0 <= z16 <= 1
0 <= z17 <= 1
0 <= z18 <= 1
0 <= z19 <= 1
0 <= z20 <= 1
Generals
x0
x1
x2
x3
x4
x5
x6
x7
x8
x10
x12
x14
x16 

z1
z2
z3
z4
z5
z6
z7
z8
z9
z10
z11
z12
z13
z14
z15
z16
z17
z18
z19
z20
End